NAME : B-n45-k6.403809.tour
COMMENT : Length = 403809
COMMENT : Found by LKH [Keld Helsgaun] Sun Dec 17 19:08:44 2017
TYPE : TOUR
DIMENSION : 50
TOUR_SECTION
1
6
12
11
37
3
15
18
25
46
17
31
26
27
7
35
19
49
5
28
40
9
23
29
33
20
38
24
47
44
30
14
43
2
50
8
21
16
39
22
32
42
48
13
36
45
34
41
4
10
-1
EOF
